100
100
100
99
99
98
96
95
95
95
93
93
92
92
92
91
90
89
89
89
87
87
87
85
84
81
81
80
79
77
74
74
74
73
73
72
71
70
70
66
66
65
65
65
64
63
63
63
63
63
61
57
56
54
52
52
51
49
48
46
44
44
44
42
40
40
40
38
38
35
34
31
31
31
30
27
27
25
25
24
21
21
21
18
17
17
16
16
16
15
15
11
11
9
9
9
8
5
5
5
3
1
